ilp/gc.sol
# Objective value = 3
y1 1
y2 1
y3 1
x11 0
x12 0
x13 1
x21 1
x22 0
x23 0
x31 0
x32 1
x33 0
